7090767478800370210504,4,1,2,01,15,1,2,02,3,1,2,09,9,1,2,014,6,1,2,011,6,1,2,07,1,1,2,02,4,1,2,04,13,1,2,03,6,1,2,012,1,1,2,04,10,1,2,03,2,1,2,01,3,1,2,02,8,1,2,014,11,1,2,011,8,1,2,013,10,1,2,012,12,1,2,013,6,1,2,03,13,1,2,04,14,1,2,03,14,1,2,02,14,1,2,08,6,1,2,013,12,1,2,015,2,1,2,03,10,1,2,09,1,1,2,012,8,1,2,015,8,1,2,04,14,1,2,010,3,1,2,02,1,1,2,01,4,1,2,09,3,1,2,015,10,1,2,08,2,1,2,07,13,1,2,06,5,1,2,012,7,1,2,04,10,1,2,011,1,1,2,013,14,1,2,010,15,1,2,07,3,1,2,02,15,1,2,02,11,1,2,010,8,1,2,04,9,1,2,0